write_xyz = .true.
write_hr=true
write_rmn=true
bands_plot =  .true.
guiding_centres=T
dis_num_iter=1000
dis_win_min=-0.5
dis_win_max=20
dis_froz_min=-0.5
dis_froz_max=10
Num_iter=0
num_wann = 136
num_bands=256

begin kpoint_path
GAMMA    0.0000000000   0.0000000000   0.0000000000       C         0.3487843404   0.3487843404   0.0000000000   
C_2     -0.3487843404   0.6512156596   0.0000000000       Y_2      -0.5000000000   0.5000000000   0.0000000000   
Y_2     -0.5000000000   0.5000000000   0.0000000000       GAMMA     0.0000000000   0.0000000000   0.0000000000   
GAMMA    0.0000000000   0.0000000000   0.0000000000       M_2      -0.5000000000   0.5000000000   0.5000000000   
M_2     -0.5000000000   0.5000000000   0.5000000000       D        -0.3150562835   0.6849437165   0.5000000000   
D_2      0.3150562835   0.3150562835   0.5000000000       A         0.0000000000   0.0000000000   0.5000000000   
A        0.0000000000   0.0000000000   0.5000000000       GAMMA     0.0000000000   0.0000000000   0.0000000000   
L_2      0.0000000000   0.5000000000   0.5000000000       GAMMA     0.0000000000   0.0000000000   0.0000000000   
GAMMA    0.0000000000   0.0000000000   0.0000000000       V_2       0.0000000000   0.5000000000   0.0000000000   
end kpoint_path
bands_num_points = 301


begin projections
Mn:d
Bi:p
O:p
end projections

BERRY = T
BERRY_TASK = kubo
KMESH = 50 50 50
KUBO_FREQ_MIN = 0
KUBO_FREQ_MAX = 3.0
KUBO_FREQ_STEP = 0.001
fermi_energy=  7.2752
KUBO_ADPT_SMR = true




spinors = .true.

begin unit_cell_cart
     4.7661510    -2.8032000     0.0000000
     4.7661510     2.8032000     0.0000000
    -3.4776551     0.0000000     9.2194026
end unit_cell_cart

begin atoms_cart
Mn       4.7661510    -2.5919346     0.0000000
Mn      -0.2252680     0.4103654     6.9145452
Mn       6.2799149     0.4103654     2.3048574
Mn       3.0273234     0.6095480     4.6097013
Bi      -0.0150218     0.2788622     3.4401484
Bi       6.0696687     0.2788622     5.7792543
Bi       3.0423753     0.5417051     1.1694258
Bi       3.0122715     0.5417051     8.0499768
O       -1.9851535     0.0044589     7.6544779
O        8.0398004     0.0044589     1.5649248
O        1.5345768     0.8162776     6.1745222
O        4.5200701     0.8162776     3.0448804
O        3.9996603    -0.6379228     5.7437534
O        2.0549865    -0.6379228     3.4756492
O        6.6706243    -0.7507181     3.8250696
O       -0.6159775    -0.7507181     5.3943330
O        0.1653900     1.5716276     8.4347745
O        5.8892569     1.5716276     0.7846281
O        5.7388080    -1.3443769     1.1337422
O        0.3158388    -1.3443769     8.0856604
end atoms_cart

mp_grid =     7     7     4

begin kpoints
      0.000000000000      0.000000000000      0.000000000000
      0.142857142857      0.000000000000     -0.000000000000
      0.285714285714     -0.000000000000     -0.000000000000
      0.428571428571     -0.000000000000     -0.000000000000
     -0.428571428571      0.000000000000      0.000000000000
     -0.285714285714      0.000000000000      0.000000000000
     -0.142857142857     -0.000000000000      0.000000000000
      0.000000000000      0.142857142857     -0.000000000000
      0.142857142857      0.142857142857     -0.000000000000
      0.285714285714      0.142857142857     -0.000000000000
      0.428571428571      0.142857142857     -0.000000000000
     -0.428571428571      0.142857142857      0.000000000000
     -0.285714285714      0.142857142857     -0.000000000000
     -0.142857142857      0.142857142857      0.000000000000
     -0.000000000000      0.285714285714     -0.000000000000
      0.142857142857      0.285714285714     -0.000000000000
      0.285714285714      0.285714285714     -0.000000000000
      0.428571428571      0.285714285714      0.000000000000
     -0.428571428571      0.285714285714      0.000000000000
     -0.285714285714      0.285714285714      0.000000000000
     -0.142857142857      0.285714285714     -0.000000000000
      0.000000000000      0.428571428571     -0.000000000000
      0.142857142857      0.428571428571     -0.000000000000
      0.285714285714      0.428571428571     -0.000000000000
      0.428571428571      0.428571428571     -0.000000000000
     -0.428571428571      0.428571428571     -0.000000000000
     -0.285714285714      0.428571428571     -0.000000000000
     -0.142857142857      0.428571428571     -0.000000000000
     -0.000000000000     -0.428571428571      0.000000000000
      0.142857142857     -0.428571428571      0.000000000000
      0.285714285714     -0.428571428571      0.000000000000
      0.428571428571     -0.428571428571      0.000000000000
     -0.428571428571     -0.428571428571      0.000000000000
     -0.285714285714     -0.428571428571      0.000000000000
     -0.142857142857     -0.428571428571      0.000000000000
      0.000000000000     -0.285714285714      0.000000000000
      0.142857142857     -0.285714285714     -0.000000000000
      0.285714285714     -0.285714285714     -0.000000000000
      0.428571428571     -0.285714285714     -0.000000000000
     -0.428571428571     -0.285714285714     -0.000000000000
     -0.285714285714     -0.285714285714      0.000000000000
     -0.142857142857     -0.285714285714      0.000000000000
     -0.000000000000     -0.142857142857      0.000000000000
      0.142857142857     -0.142857142857     -0.000000000000
      0.285714285714     -0.142857142857     -0.000000000000
      0.428571428571     -0.142857142857     -0.000000000000
     -0.428571428571     -0.142857142857      0.000000000000
     -0.285714285714     -0.142857142857      0.000000000000
     -0.142857142857     -0.142857142857      0.000000000000
      0.000000000000      0.000000000000      0.250000000000
      0.142857142857      0.000000000000      0.250000000000
      0.285714285714     -0.000000000000      0.250000000000
      0.428571428571     -0.000000000000      0.250000000000
     -0.428571428571      0.000000000000      0.250000000000
     -0.285714285714      0.000000000000      0.250000000000
     -0.142857142857     -0.000000000000      0.250000000000
      0.000000000000      0.142857142857      0.250000000000
      0.142857142857      0.142857142857      0.250000000000
      0.285714285714      0.142857142857      0.250000000000
      0.428571428571      0.142857142857      0.250000000000
     -0.428571428571      0.142857142857      0.250000000000
     -0.285714285714      0.142857142857      0.250000000000
     -0.142857142857      0.142857142857      0.250000000000
     -0.000000000000      0.285714285714      0.250000000000
      0.142857142857      0.285714285714      0.250000000000
      0.285714285714      0.285714285714      0.250000000000
      0.428571428571      0.285714285714      0.250000000000
     -0.428571428571      0.285714285714      0.250000000000
     -0.285714285714      0.285714285714      0.250000000000
     -0.142857142857      0.285714285714      0.250000000000
      0.000000000000      0.428571428571      0.250000000000
      0.142857142857      0.428571428571      0.250000000000
      0.285714285714      0.428571428571      0.250000000000
      0.428571428571      0.428571428571      0.250000000000
     -0.428571428571      0.428571428571      0.250000000000
     -0.285714285714      0.428571428571      0.250000000000
     -0.142857142857      0.428571428571      0.250000000000
     -0.000000000000     -0.428571428571      0.250000000000
      0.142857142857     -0.428571428571      0.250000000000
      0.285714285714     -0.428571428571      0.250000000000
      0.428571428571     -0.428571428571      0.250000000000
     -0.428571428571     -0.428571428571      0.250000000000
     -0.285714285714     -0.428571428571      0.250000000000
     -0.142857142857     -0.428571428571      0.250000000000
      0.000000000000     -0.285714285714      0.250000000000
      0.142857142857     -0.285714285714      0.250000000000
      0.285714285714     -0.285714285714      0.250000000000
      0.428571428571     -0.285714285714      0.250000000000
     -0.428571428571     -0.285714285714      0.250000000000
     -0.285714285714     -0.285714285714      0.250000000000
     -0.142857142857     -0.285714285714      0.250000000000
     -0.000000000000     -0.142857142857      0.250000000000
      0.142857142857     -0.142857142857      0.250000000000
      0.285714285714     -0.142857142857      0.250000000000
      0.428571428571     -0.142857142857      0.250000000000
     -0.428571428571     -0.142857142857      0.250000000000
     -0.285714285714     -0.142857142857      0.250000000000
     -0.142857142857     -0.142857142857      0.250000000000
      0.000000000000      0.000000000000      0.500000000000
      0.142857142857      0.000000000000      0.500000000000
      0.285714285714     -0.000000000000      0.500000000000
      0.428571428571     -0.000000000000      0.500000000000
     -0.428571428571      0.000000000000      0.500000000000
     -0.285714285714      0.000000000000      0.500000000000
     -0.142857142857     -0.000000000000      0.500000000000
      0.000000000000      0.142857142857      0.500000000000
      0.142857142857      0.142857142857      0.500000000000
      0.285714285714      0.142857142857      0.500000000000
      0.428571428571      0.142857142857      0.500000000000
     -0.428571428571      0.142857142857      0.500000000000
     -0.285714285714      0.142857142857      0.500000000000
     -0.142857142857      0.142857142857      0.500000000000
     -0.000000000000      0.285714285714      0.500000000000
      0.142857142857      0.285714285714      0.500000000000
      0.285714285714      0.285714285714      0.500000000000
      0.428571428571      0.285714285714      0.500000000000
     -0.428571428571      0.285714285714      0.500000000000
     -0.285714285714      0.285714285714      0.500000000000
     -0.142857142857      0.285714285714      0.500000000000
      0.000000000000      0.428571428571      0.500000000000
      0.142857142857      0.428571428571      0.500000000000
      0.285714285714      0.428571428571      0.500000000000
      0.428571428571      0.428571428571      0.500000000000
     -0.428571428571      0.428571428571      0.500000000000
     -0.285714285714      0.428571428571      0.500000000000
     -0.142857142857      0.428571428571      0.500000000000
     -0.000000000000     -0.428571428571      0.500000000000
      0.142857142857     -0.428571428571      0.500000000000
      0.285714285714     -0.428571428571      0.500000000000
      0.428571428571     -0.428571428571      0.500000000000
     -0.428571428571     -0.428571428571      0.500000000000
     -0.285714285714     -0.428571428571      0.500000000000
     -0.142857142857     -0.428571428571      0.500000000000
      0.000000000000     -0.285714285714      0.500000000000
      0.142857142857     -0.285714285714      0.500000000000
      0.285714285714     -0.285714285714      0.500000000000
      0.428571428571     -0.285714285714      0.500000000000
     -0.428571428571     -0.285714285714      0.500000000000
     -0.285714285714     -0.285714285714      0.500000000000
     -0.142857142857     -0.285714285714      0.500000000000
     -0.000000000000     -0.142857142857      0.500000000000
      0.142857142857     -0.142857142857      0.500000000000
      0.285714285714     -0.142857142857      0.500000000000
      0.428571428571     -0.142857142857      0.500000000000
     -0.428571428571     -0.142857142857      0.500000000000
     -0.285714285714     -0.142857142857      0.500000000000
     -0.142857142857     -0.142857142857      0.500000000000
      0.000000000000      0.000000000000     -0.250000000000
      0.142857142857      0.000000000000     -0.250000000000
      0.285714285714     -0.000000000000     -0.250000000000
      0.428571428571     -0.000000000000     -0.250000000000
     -0.428571428571      0.000000000000     -0.250000000000
     -0.285714285714      0.000000000000     -0.250000000000
     -0.142857142857     -0.000000000000     -0.250000000000
      0.000000000000      0.142857142857     -0.250000000000
      0.142857142857      0.142857142857     -0.250000000000
      0.285714285714      0.142857142857     -0.250000000000
      0.428571428571      0.142857142857     -0.250000000000
     -0.428571428571      0.142857142857     -0.250000000000
     -0.285714285714      0.142857142857     -0.250000000000
     -0.142857142857      0.142857142857     -0.250000000000
     -0.000000000000      0.285714285714     -0.250000000000
      0.142857142857      0.285714285714     -0.250000000000
      0.285714285714      0.285714285714     -0.250000000000
      0.428571428571      0.285714285714     -0.250000000000
     -0.428571428571      0.285714285714     -0.250000000000
     -0.285714285714      0.285714285714     -0.250000000000
     -0.142857142857      0.285714285714     -0.250000000000
      0.000000000000      0.428571428571     -0.250000000000
      0.142857142857      0.428571428571     -0.250000000000
      0.285714285714      0.428571428571     -0.250000000000
      0.428571428571      0.428571428571     -0.250000000000
     -0.428571428571      0.428571428571     -0.250000000000
     -0.285714285714      0.428571428571     -0.250000000000
     -0.142857142857      0.428571428571     -0.250000000000
     -0.000000000000     -0.428571428571     -0.250000000000
      0.142857142857     -0.428571428571     -0.250000000000
      0.285714285714     -0.428571428571     -0.250000000000
      0.428571428571     -0.428571428571     -0.250000000000
     -0.428571428571     -0.428571428571     -0.250000000000
     -0.285714285714     -0.428571428571     -0.250000000000
     -0.142857142857     -0.428571428571     -0.250000000000
      0.000000000000     -0.285714285714     -0.250000000000
      0.142857142857     -0.285714285714     -0.250000000000
      0.285714285714     -0.285714285714     -0.250000000000
      0.428571428571     -0.285714285714     -0.250000000000
     -0.428571428571     -0.285714285714     -0.250000000000
     -0.285714285714     -0.285714285714     -0.250000000000
     -0.142857142857     -0.285714285714     -0.250000000000
     -0.000000000000     -0.142857142857     -0.250000000000
      0.142857142857     -0.142857142857     -0.250000000000
      0.285714285714     -0.142857142857     -0.250000000000
      0.428571428571     -0.142857142857     -0.250000000000
     -0.428571428571     -0.142857142857     -0.250000000000
     -0.285714285714     -0.142857142857     -0.250000000000
     -0.142857142857     -0.142857142857     -0.250000000000
end kpoints
